Set parameter TokenServer to value "opt-license.discovery.wisc.edu"
Set parameter PreCrush to value 1
Set parameter LazyConstraints to value 1
Set parameter TimeLimit to value 1800
Gurobi Optimizer version 9.5.1 build v9.5.1rc2 (linux64)
Thread count: 40 physical cores, 80 logical processors, using up to 32 threads
Optimize a model with 1681 rows, 1600 columns and 6360 nonzeros
Model fingerprint: 0x0fd3dbf1
Variable types: 0 continuous, 1600 integer (1600 binary)
Coefficient statistics:
  Matrix range     [1e+00, 9e+02]
  Objective range  [1e+00, 8e+00]
  Bounds range     [1e+00, 1e+00]
  RHS range        [1e+00, 6e+00]
Presolve removed 40 rows and 0 columns
Presolve time: 0.02s
Presolved: 1641 rows, 1600 columns, 6360 nonzeros
Variable types: 0 continuous, 1600 integer (1600 binary)

Root relaxation: objective 3.964808e+01, 456 iterations, 0.02 seconds (0.01 work units)

    Nodes    |    Current Node    |     Objective Bounds      |     Work
 Expl Unexpl |  Obj  Depth IntInf | Incumbent    BestBd   Gap | It/Node Time

     0     0   39.64808    0   45          -   39.64808      -     -    0s
H    0     0                      41.4426987   39.64808  4.33%     -    0s
     0     0   39.75365    0   40   41.44270   39.75365  4.08%     -    0s
     0     0   39.75365    0   45   41.44270   39.75365  4.08%     -    0s
     0     0   39.96256    0  148   41.44270   39.96256  3.57%     -    0s
     0     0   39.98980    0  142   41.44270   39.98980  3.51%     -    1s
     0     0   40.15637    0  111   41.44270   40.15637  3.10%     -    1s
     0     0   40.24312    0  134   41.44270   40.24312  2.89%     -    1s
     0     0   40.36544    0  110   41.44270   40.36544  2.60%     -    1s
     0     0   40.36950    0   74   41.44270   40.36950  2.59%     -    1s
     0     0   40.44752    0  123   41.44270   40.44752  2.40%     -    1s
     0     0   40.44752    0   42   41.44270   40.44752  2.40%     -    1s
     0     0   40.44752    0   65   41.44270   40.44752  2.40%     -    2s
     0     0   40.44752    0  108   41.44270   40.44752  2.40%     -    2s
     0     0   40.46631    0  116   41.44270   40.46631  2.36%     -    2s
     0     0   40.47307    0  118   41.44270   40.47307  2.34%     -    2s
     0     0   40.50274    0  122   41.44270   40.50274  2.27%     -    2s
     0     0   40.51107    0  145   41.44270   40.51107  2.25%     -    2s
     0     0   40.52167    0  138   41.44270   40.52167  2.22%     -    2s
     0     0   40.52167    0  138   41.44270   40.52167  2.22%     -    3s
     0     0   40.52167    0  138   41.44270   40.52167  2.22%     -    3s
     0     2   40.52284    0  138   41.44270   40.52284  2.22%     -    3s
    38    22   41.11230    6  114   41.44270   40.69041  1.82%  40.3    7s
H   40    22                      41.2066307   40.69041  1.25%  38.8    7s
   112     4     cutoff   13        41.20663   40.83267  0.91%  27.9   10s

Cutting planes:
  User: 21
  Gomory: 6
  MIR: 9
  StrongCG: 9
  GUB cover: 11
  Zero half: 1
  RLT: 3
  Lazy constraints: 2

Explored 139 nodes (5868 simplex iterations) in 11.52 seconds (0.32 work units)
Thread count was 32 (of 80 available processors)

Solution count 2: 41.2066 41.4427 

Optimal solution found (tolerance 1.00e-04)
Best objective 4.120663072598e+01, best bound 4.120663072598e+01, gap 0.0000%

User-callback calls 815, time in user-callback 10.67 sec
cuts :  24
